(set-info :smt-lib-version 2.6)
(set-logic QF_UFLRA)
(set-info :source |
MathSat group

|)
(set-info :category "random")
(set-info :status sat)
(declare-fun x0 () Real)
(declare-fun x1 () Real)
(declare-fun x2 () Real)
(declare-fun x3 () Real)
(declare-fun x4 () Real)
(declare-fun x5 () Real)
(declare-fun x6 () Real)
(declare-fun x7 () Real)
(declare-fun x8 () Real)
(declare-fun x9 () Real)
(declare-fun x10 () Real)
(declare-fun x11 () Real)
(declare-fun x12 () Real)
(declare-fun x13 () Real)
(declare-fun x14 () Real)
(declare-fun x15 () Real)
(declare-fun x16 () Real)
(declare-fun x17 () Real)
(declare-fun x18 () Real)
(declare-fun x19 () Real)
(declare-fun x20 () Real)
(declare-fun x21 () Real)
(declare-fun x22 () Real)
(declare-fun x23 () Real)
(declare-fun x24 () Real)
(declare-fun x25 () Real)
(declare-fun x26 () Real)
(declare-fun x27 () Real)
(declare-fun x28 () Real)
(declare-fun x29 () Real)
(declare-fun f0_1 (Real) Real)
(declare-fun f0_2 (Real Real) Real)
(declare-fun f0_3 (Real Real Real) Real)
(declare-fun f0_4 (Real Real Real Real) Real)
(declare-fun P0 () Bool)
(declare-fun P1 () Bool)
(declare-fun P2 () Bool)
(declare-fun P3 () Bool)
(declare-fun P4 () Bool)
(declare-fun P5 () Bool)
(declare-fun P6 () Bool)
(declare-fun P7 () Bool)
(declare-fun P8 () Bool)
(declare-fun P9 () Bool)
(declare-fun P10 () Bool)
(declare-fun P11 () Bool)
(declare-fun P12 () Bool)
(declare-fun P13 () Bool)
(declare-fun P14 () Bool)
(declare-fun P15 () Bool)
(declare-fun P16 () Bool)
(declare-fun P17 () Bool)
(declare-fun P18 () Bool)
(declare-fun P19 () Bool)
(declare-fun P20 () Bool)
(declare-fun P21 () Bool)
(declare-fun P22 () Bool)
(declare-fun P23 () Bool)
(declare-fun P24 () Bool)
(declare-fun P25 () Bool)
(declare-fun P26 () Bool)
(declare-fun P27 () Bool)
(declare-fun P28 () Bool)
(declare-fun P29 () Bool)
(assert (let ((?v_32 (* 35 x28)) (?v_64 (* 40 x22)) (?v_72 (<= (- (+ (* 19 x0) (* 9 x17)) (* 2 x14)) 4)) (?v_25 (< (- (+ (* 17 x0) (* 6 x16)) (* 21 x1)) 23)) (?v_63 (<= (+ (- (* 37 x16) (* 24 x26)) (* 24 x13)) 10)) (?v_82 (f0_1 x29))) (let ((?v_143 (distinct (f0_2 x7 x0) ?v_82)) (?v_52 (distinct (f0_2 x21 x26) (f0_2 x18 x2))) (?v_1 (f0_1 x7))) (let ((?v_17 (= x23 ?v_1)) (?v_13 (f0_1 x14)) (?v_26 (f0_1 x5))) (let ((?v_6 (distinct ?v_13 ?v_26)) (?v_2 (f0_1 x18))) (let ((?v_7 (distinct ?v_2 x27)) (?v_58 (f0_1 x11))) (let ((?v_115 (distinct (f0_2 x28 x23) ?v_58)) (?v_95 (= (f0_2 x24 x7) (f0_1 x2))) (?v_8 (= x16 x0)) (?v_94 (= (f0_1 x9) (f0_2 x8 x4))) (?v_118 (f0_1 x13))) (let ((?v_23 (distinct x24 ?v_118)) (?v_14 (= (f0_2 x17 x17) x28)) (?v_44 (distinct ?v_1 ?v_2)) (?v_92 (distinct (f0_1 x17) ?v_58)) (?v_133 (distinct (f0_2 x18 x12) ?v_118)) (?v_105 (= x21 (f0_2 x18 x1))) (?v_9 (f0_1 x22))) (let ((?v_16 (= x12 ?v_9)) (?v_75 (distinct (f0_1 x26) (f0_1 x16))) (?v_11 (= (f0_1 x15) x3)) (?v_30 (distinct ?v_82 (f0_2 x8 x22))) (?v_19 (distinct (f0_1 x6) x11)) (?v_70 (distinct (f0_1 x1) x25)) (?v_29 (= (f0_2 x29 x7) (f0_2 x2 x15))) (?v_62 (= ?v_26 (f0_1 x23))) (?v_15 (distinct x21 ?v_13)) (?v_18 (= (f0_2 x27 x16) (f0_2 x15 x14))) (?v_37 (= (f0_1 x4) x20)) (?v_54 (= x2 x4)) (?v_79 (= (f0_2 x7 x16) (f0_2 x5 x21))) (?v_117 (distinct ?v_13 x24)) (?v_42 (distinct ?v_9 (f0_2 x20 x4))) (?v_3 (not P26)) (?v_137 (not P14)) (?v_67 (not ?v_94)) (?v_139 (not P19)) (?v_0 (not P5))) (let ((?v_4 (not ?v_42)) (?v_27 (not P27)) (?v_35 (not ?v_19)) (?v_76 (not P29)) (?v_131 (not P18)) (?v_127 (not ?v_44)) (?v_121 (not ?v_11)) (?v_39 (not P4)) (?v_20 (not P22)) (?v_152 (not ?v_23)) (?v_122 (not P23)) (?v_101 (not P10)) (?v_31 (not ?v_16)) (?v_21 (not ?v_52)) (?v_50 (not P20)) (?v_24 (not ?v_15)) (?v_124 (not ?v_14)) (?v_78 (not P16)) (?v_132 (not ?v_117)) (?v_126 (not ?v_95)) (?v_89 (not P12)) (?v_43 (not P9)) (?v_110 (not ?v_30)) (?v_104 (not P11)) (?v_49 (not P28)) (?v_142 (not ?v_6)) (?v_71 (not ?v_37)) (?v_51 (not P15)) (?v_154 (not ?v_25)) (?v_56 (not P25)) (?v_55 (not ?v_115)) (?v_60 (not P6)) (?v_125 (not P17)) (?v_57 (not ?v_8)) (?v_66 (not ?v_62)) (?v_113 (not ?v_72)) (?v_85 (not ?v_7)) (?v_88 (not ?v_70)) (?v_81 (not P13)) (?v_77 (not P24)) (?v_91 (not ?v_75)) (?v_83 (not ?v_143)) (?v_106 (not ?v_29)) (?v_96 (not P2)) (?v_147 (not ?v_92)) (?v_97 (not P3)) (?v_116 (not P0)) (?v_146 (not P7)) (?v_130 (not P1)) (?v_135 (not ?v_54)) (?v_140 (not ?v_18)) (?v_120 (not ?v_17)) (?v_141 (not ?v_105)) (?v_138 (not ?v_63)) (?v_150 (not ?v_133)) (?v_153 (not P21)) (?v_36 (<= (+ (* 17 x25) ?v_64 (* 2 x28)) 26)) (?v_123 (< (- (+ (* 25 x17) (* 41 x17)) x4) 11))) (let ((?v_10 (not ?v_123)) (?v_48 (< (+ (* 42 x26) (* 7 x19) (* 9 x24)) 18))) (let ((?v_59 (not ?v_48)) (?v_114 (< (+ (* 32 x27) (* 36 x26) (* 11 x16)) 8))) (let ((?v_68 (not ?v_114)) (?v_98 (not ?v_36)) (?v_128 (distinct (- (+ (* 12 x29) (* 15 x12)) 0) 26)) (?v_155 (or ?v_36 P9))) (let ((?v_148 (not ?v_128)) (?v_102 (distinct (- (+ (* 3 x5) (* 34 x19)) (* 28 x28)) (- 1)))) (let ((?v_40 (not ?v_102)) (?v_5 (<= (- (+ (* (- 6) x12) (* 27 x13)) (* 30 x20)) 3)) (?v_34 (< (+ (- (* 6 x22) 0) (* 12 x28)) (- 16))) (?v_46 (< (- (+ (* (- 41) x0) (* 40 x5)) (* 30 x14)) 8)) (?v_28 (distinct (- (+ (* 27 x24) (* 33 x19)) (* 28 x11)) (- 15)))) (let ((?v_65 (not ?v_28)) (?v_33 (< (- (- x10 (* 38 x7)) (* 28 x22)) (- 24))) (?v_38 (= (- (+ (* (- 9) x22) x8) (* 41 x19)) 39))) (let ((?v_100 (not ?v_38)) (?v_134 (not ?v_5)) (?v_12 (distinct (+ (* 18 x19) (* 22 x14) (* 17 x17)) (- 28))) (?v_22 (<= (- (- (* (- 15) x13) x1) (* 20 x5)) 2))) (let ((?v_74 (not ?v_22)) (?v_45 (distinct (+ (- (* (- 11) x25) (* 42 x20)) ?v_32) (- 35)))) (let ((?v_145 (not ?v_45)) (?v_103 (<= (+ (- (* (- 7) x13) (* 36 x9)) (* 12 x26)) 36)) (?v_149 (< (- (* (- 27) x12) (* 11 x20)) (- 22)))) (let ((?v_41 (not ?v_149)) (?v_47 (<= (+ (* (- 28) x25) ?v_32 (* 5 x14)) 22))) (let ((?v_61 (not ?v_47)) (?v_53 (not ?v_34)) (?v_73 (<= (- (* (- 16) x6) (* 34 x5)) 39)) (?v_90 (<= (- (- (* (- 23) x16) (* 37 x23)) (* 22 x18)) (- 11))) (?v_129 (<= (+ (- (* (- 31) x29) (* 21 x4)) (* 28 x6)) (- 28)))) (let ((?v_86 (not ?v_129)) (?v_109 (not ?v_12)) (?v_80 (< (+ (- (* (- 20) x10) ?v_64) (* 10 x26)) 25))) (let ((?v_84 (not ?v_80)) (?v_69 (= (+ (* 27 x10) (* 2 x7) (* 38 x5)) (- 6))) (?v_87 (< (- (- (* (- 16) x14) (* 20 x7)) (* 31 x22)) 36))) (let ((?v_99 (not ?v_87)) (?v_112 (= (- (- (* (- 27) x17) (* 39 x17)) (* 42 x25)) (- 1)))) (let ((?v_93 (not ?v_112)) (?v_108 (not ?v_90)) (?v_144 (<= (+ (- (* (- 1) x2) (* 3 x1)) (* 24 x7)) 1))) (let ((?v_107 (not ?v_144)) (?v_119 (not ?v_69)) (?v_136 (not ?v_73)) (?v_111 (not ?v_33)) (?v_151 (<= (+ (* 14 x28) (* 10 x25) (* 29 x22)) (- 11)))) (let ((?v_156 (not ?v_151)) (?v_157 (not ?v_46))) (and (and (and (and (and (and (and (and (and (and (and (and (and (and (and (and (and (and (and (and (and (and (and (and (and (and (and (and (and (and (and (and (and (and (and (and (and (and (and (and (and (and (and (and (and (and (and (and (and (and (and (and (and (and (and (and (and (and (and (and (and (and (and (and (and (and (and (and (and (and (and (and (and (and (and (and (and (and (and (and (and (and (and (and (and (and (and (and (and (and (and (and (and (and (and (and (and (and (and (and (and (and (and (and (and (and (and (and (and (and (and (and (and (and (and (and (and (and (and (and (and (and (and (and (and (and (and (and (and (and (and (and (and (and (and (and (and (and (and (and (and (and (and (and (and (and (and (and (and (and (and (and (and (and (and (and (and (and (and (and (and (and (and (and (and (and (and (and (and (and (and (and (and (and (and (and (and (and (and (and (and (and (and (and (and (and (and (and (and (and (and (and (and (and (and (and (and (and (and (and (and (and (and (and (and (and (and (and (and (and (and (and (and (and (and (and (and (and (and (and (and (and (and (and (and (and (and (and (and (and (and (and (and (and (and (and (and (and (and (and (and (and (and (and (and (and (and (and (and (and (and (and (and (and (and (and (and (and (and (and (and (and (and (and (and (and (and (and (and (and (and (and (and (and (and (and (and (and (and (and (and (and (and (and (and (and (and (and (and (and (and (and (and (and (and (and (and (and (and (and (and (and (and (and (and (and (and (and (and (and (and (and (and (and (and (and (and (and (and (and (and (and (and (and (and (and (and (and (and (and (and (and (and (and (and (and (and (and (and (and (and (and (and (and (and (and (and (and (and (and (and (and (and (and (and (and (and (and (and (or (or ?v_3 ?v_137) P29) (or (or ?v_29 ?v_14) ?v_40)) (or (or ?v_67 ?v_139) ?v_17)) (or (or P15 ?v_0) ?v_4)) (or (or P20 P15) ?v_5)) (or (or ?v_27 ?v_34) P23)) (or (or ?v_46 ?v_35) ?v_76)) (or (or ?v_0 ?v_65) P26)) (or (or ?v_30 ?v_8) ?v_131)) (or (or ?v_33 ?v_127) ?v_36)) (or (or ?v_121 ?v_7) ?v_18)) (or (or ?v_6 ?v_39) ?v_3)) (or (or ?v_100 ?v_10) ?v_20)) (or (or ?v_152 P19) ?v_4)) (or (or P14 P7) P2)) (or (or ?v_134 ?v_25) ?v_12)) (or (or P16 ?v_74) ?v_6)) (or (or ?v_7 ?v_8) ?v_5)) (or (or ?v_122 ?v_101) ?v_31)) (or (or ?v_6 ?v_21) ?v_145)) (or (or ?v_10 P7) ?v_50)) (or (or ?v_11 ?v_12) ?v_24)) (or (or ?v_124 ?v_75) P11)) (or (or ?v_78 ?v_132) ?v_8)) (or (or ?v_126 ?v_15) ?v_16)) (or (or ?v_17 ?v_18) ?v_19)) (or (or ?v_20 ?v_21) ?v_22)) (or (or ?v_23 ?v_37) ?v_89)) (or (or ?v_63 ?v_59) ?v_15)) (or (or ?v_24 ?v_103) ?v_25)) (or (or ?v_62 ?v_41) ?v_27)) (or (or ?v_28 ?v_0) ?v_23)) (or (or ?v_29 ?v_25) ?v_43)) (or (or P10 ?v_110) ?v_104)) (or (or P29 ?v_49) ?v_31)) (or (or ?v_61 ?v_33) ?v_142)) (or (or ?v_53 ?v_35) ?v_105)) (or (or ?v_30 ?v_23) ?v_5)) (or (or P0 ?v_36) ?v_11)) (or (or ?v_71 ?v_68) ?v_17)) (or (or ?v_38 ?v_29) ?v_39)) (or (or P2 ?v_98) ?v_6)) (or (or ?v_73 ?v_30) ?v_90)) (or (or P2 ?v_40) ?v_7)) (or (or ?v_54 ?v_41) ?v_42)) (or (or ?v_20 ?v_86) P0)) (or (or ?v_43 ?v_5) ?v_23)) (or (or ?v_44 ?v_51) ?v_70)) (or (or P2 P17) ?v_45)) (or (or ?v_46 ?v_154) ?v_47)) (or (or ?v_30 ?v_128) ?v_48)) (or (or ?v_37 ?v_11) ?v_56)) (or (or ?v_49 ?v_55) P26)) (or (or ?v_50 ?v_51) ?v_60)) (or (or P27 P23) P6)) (or (or ?v_24 ?v_52) ?v_53)) (or (or ?v_125 ?v_54) ?v_79)) (or (or ?v_27 ?v_55) ?v_57)) (or (or ?v_20 ?v_3) P2)) (or (or ?v_44 ?v_6) ?v_56)) (or (or ?v_57 ?v_92) ?v_109)) (or (or ?v_35 ?v_59) ?v_31)) (or (or ?v_33 ?v_60) ?v_61)) (or (or P9 P6) ?v_29)) (or (or ?v_16 P26) ?v_66)) (or (or ?v_28 ?v_30) ?v_63)) (or (or ?v_63 ?v_84) P6)) (or (or ?v_65 ?v_20) ?v_69)) (or (or ?v_35 ?v_0) ?v_113)) (or (or ?v_85 ?v_19) ?v_66)) (or (or ?v_53 ?v_67) ?v_43)) (or (or ?v_11 ?v_68) ?v_69)) (or (or ?v_88 ?v_12) ?v_66)) (or (or ?v_57 ?v_25) ?v_71)) (or (or P28 ?v_72) ?v_54)) (or (or P16 P2) ?v_99)) (or (or ?v_73 ?v_56) ?v_7)) (or (or ?v_81 ?v_77) ?v_74)) (or (or ?v_8 P12) ?v_14)) (or (or ?v_57 ?v_44) ?v_91)) (or (or P20 ?v_68) ?v_76)) (or (or ?v_77 ?v_8) ?v_78)) (or (or P15 (not ?v_79)) P28)) (or (or ?v_6 ?v_80) ?v_81)) (or (or ?v_20 ?v_22) ?v_83)) (or (or ?v_83 ?v_41) ?v_77)) (or (or P24 ?v_49) ?v_65)) (or (or ?v_44 ?v_84) P24)) (or (or ?v_83 ?v_21) P0)) (or (or ?v_61 ?v_78) ?v_93)) (or (or ?v_85 ?v_75) ?v_86)) (or (or ?v_51 ?v_6) ?v_87)) (or (or ?v_88 P22) ?v_55)) (or (or P2 P1) ?v_68)) (or (or ?v_33 ?v_106) ?v_5)) (or (or ?v_18 ?v_52) P24)) (or (or ?v_89 ?v_108) P29)) (or (or ?v_91 ?v_96) ?v_107)) (or (or ?v_37 P27) P6)) (or (or ?v_77 ?v_147) P28)) (or (or ?v_5 ?v_97) ?v_21)) (or (or ?v_48 ?v_93) ?v_94)) (or (or ?v_119 ?v_95) ?v_96)) (or (or P13 ?v_67) ?v_97)) (or (or ?v_116 ?v_136) ?v_75)) (or (or ?v_5 ?v_98) P28)) (or (or ?v_99 ?v_70) ?v_65)) (or (or ?v_63 ?v_100) ?v_35)) (or (or ?v_57 ?v_88) ?v_0)) (or (or ?v_101 ?v_8) ?v_65)) (or (or ?v_101 ?v_71) ?v_61)) (or (or ?v_57 ?v_61) ?v_102)) (or (or P12 ?v_27) ?v_103)) (or (or ?v_66 ?v_74) ?v_50)) (or (or ?v_7 ?v_146) ?v_71)) (or (or ?v_104 ?v_105) P21)) (or (or ?v_106 ?v_20) ?v_78)) (or (or ?v_49 ?v_102) ?v_70)) (or (or ?v_25 ?v_95) ?v_15)) (or (or ?v_92 ?v_24) ?v_63)) (or (or P1 P17) ?v_107)) (or (or P4 P15) ?v_83)) (or (or ?v_72 ?v_63) ?v_100)) (or (or ?v_8 ?v_40) P12)) (or (or ?v_95 P5) ?v_25)) (or (or ?v_105 ?v_108) ?v_99)) (or (or ?v_111 ?v_44) ?v_21)) (or (or ?v_109 ?v_43) ?v_54)) (or (or ?v_110 ?v_100) ?v_108)) (or (or ?v_18 ?v_111) ?v_21)) (or (or P23 ?v_108) ?v_33)) (or (or ?v_112 ?v_42) P5)) (or (or ?v_113 ?v_44) P0)) (or (or ?v_5 ?v_8) ?v_114)) (or (or P29 ?v_115) ?v_68)) (or (or P25 ?v_34) ?v_12)) (or (or ?v_116 ?v_90) ?v_35)) (or (or ?v_63 ?v_117) ?v_22)) (or (or ?v_37 ?v_100) ?v_85)) (or (or ?v_57 ?v_96) ?v_130)) (or (or P4 P17) ?v_83)) (or (or ?v_133 ?v_42) ?v_73)) (or (or ?v_105 ?v_0) P2)) (or (or ?v_4 ?v_57) ?v_111)) (or (or ?v_135 ?v_50) ?v_83)) (or (or ?v_12 ?v_140) ?v_38)) (or (or ?v_120 ?v_16) (not ?v_103))) (or (or P22 ?v_16) P8)) (or (or ?v_119 P16) ?v_56)) (or (or ?v_120 ?v_115) ?v_35)) (or (or ?v_109 ?v_141) ?v_52)) (or (or ?v_86 ?v_4) P4)) (or (or ?v_68 ?v_106) ?v_71)) (or (or ?v_107 ?v_4) ?v_121)) (or (or ?v_49 ?v_42) ?v_15)) (or ?v_155 ?v_68)) (or (or ?v_110 ?v_122) P3)) (or (or ?v_89 P14) ?v_123)) (or (or ?v_57 P29) ?v_35)) (or (or ?v_84 ?v_93) P17)) (or (or ?v_112 ?v_124) ?v_70)) (or (or ?v_125 P23) ?v_126)) (or (or ?v_89 ?v_68) ?v_54)) (or (or ?v_4 ?v_110) ?v_16)) (or (or ?v_114 ?v_42) ?v_21)) (or (or P19 ?v_127) ?v_43)) (or (or ?v_34 ?v_128) ?v_61)) (or (or ?v_35 ?v_94) ?v_45)) (or (or ?v_119 ?v_129) ?v_45)) (or (or ?v_130 P10) ?v_98)) (or (or P28 ?v_71) ?v_44)) (or (or ?v_72 ?v_115) ?v_40)) (or (or P25 ?v_131) P16)) (or (or P29 ?v_105) ?v_132)) (or (or ?v_47 ?v_106) P22)) (or (or ?v_109 ?v_3) P11)) (or (or ?v_20 ?v_37) ?v_88)) (or (or ?v_88 ?v_7) ?v_110)) (or (or ?v_102 ?v_99) ?v_133)) (or (or ?v_18 ?v_85) ?v_134)) (or (or ?v_138 ?v_114) ?v_12)) (or (or ?v_39 ?v_25) ?v_74)) (or (or ?v_53 ?v_33) P21)) (or (or ?v_94 ?v_105) P19)) (or (or ?v_92 ?v_86) ?v_135)) (or (or ?v_98 ?v_92) ?v_75)) (or (or ?v_30 ?v_114) ?v_125)) (or (or ?v_86 ?v_127) ?v_114)) (or (or ?v_63 ?v_25) ?v_104)) (or (or ?v_110 ?v_86) ?v_133)) (or (or ?v_76 P10) ?v_148)) (or (or ?v_136 ?v_137) P17)) (or (or ?v_135 ?v_18) ?v_44)) (or (or P24 ?v_150) ?v_138)) (or (or ?v_109 ?v_18) ?v_65)) (or (or ?v_139 ?v_96) P13)) (or (or ?v_140 ?v_78) ?v_131)) (or (or ?v_141 ?v_67) ?v_55)) (or (or ?v_140 ?v_119) ?v_47)) (or (or P23 ?v_65) ?v_23)) (or (or ?v_97 P12) P13)) (or (or ?v_121 ?v_68) ?v_12)) (or (or ?v_45 ?v_140) P12)) (or (or ?v_87 ?v_113) ?v_35)) (or (or P21 ?v_0) ?v_96)) (or (or ?v_81 ?v_80) ?v_93)) (or (or ?v_16 ?v_87) P3)) (or (or ?v_142 P14) ?v_141)) (or (or P28 ?v_137) ?v_73)) (or (or ?v_8 ?v_76) ?v_60)) (or (or ?v_134 ?v_79) ?v_46)) (or (or ?v_25 ?v_18) P14)) (or (or ?v_108 ?v_94) P23)) (or (or ?v_137 P28) ?v_143)) (or (or ?v_143 ?v_65) P8)) (or (or ?v_144 ?v_136) ?v_145)) (or (or ?v_14 P13) ?v_70)) (or (or ?v_40 ?v_46) ?v_107)) (or (or P25 ?v_139) ?v_18)) (or (or ?v_4 ?v_37) ?v_134)) (or (or ?v_23 ?v_124) ?v_146)) (or (or ?v_56 P3) ?v_110)) (or (or ?v_147 ?v_125) ?v_27)) (or (or ?v_93 ?v_148) ?v_35)) (or (or ?v_114 ?v_133) ?v_87)) (or (or ?v_134 ?v_141) ?v_101)) (or (or ?v_44 ?v_104) ?v_102)) (or (or ?v_15 ?v_75) ?v_149)) (or (or ?v_44 P7) P10)) (or (or ?v_100 ?v_119) ?v_125)) (or (or ?v_143 P22) ?v_73)) (or (or ?v_17 ?v_31) ?v_150)) (or (or ?v_19 P29) P0)) (or (or ?v_135 ?v_45) ?v_92)) (or (or ?v_29 P12) ?v_49)) (or (or P8 ?v_110) ?v_18)) (or (or P21 ?v_137) ?v_105)) (or (or ?v_36 ?v_60) ?v_90)) (or (or ?v_38 ?v_91) ?v_71)) (or (or ?v_132 P23) ?v_126)) (or (or ?v_35 ?v_56) ?v_11)) (or (or ?v_97 ?v_94) ?v_3)) (or (or ?v_122 ?v_153) ?v_70)) (or (or ?v_61 ?v_56) ?v_35)) (or (or ?v_88 P29) ?v_6)) (or (or ?v_145 ?v_131) ?v_22)) (or (or P6 P4) ?v_53)) (or (or ?v_25 ?v_156) ?v_22)) (or (or ?v_151 ?v_61) ?v_79)) (or (or ?v_59 ?v_35) ?v_139)) (or (or ?v_71 ?v_45) P3)) (or (or ?v_41 ?v_90) ?v_37)) (or (or ?v_99 ?v_143) ?v_61)) (or (or P4 ?v_66) ?v_10)) (or (or ?v_7 ?v_142) ?v_53)) (or (or ?v_147 P24) ?v_133)) (or (or ?v_37 ?v_109) ?v_16)) (or (or P16 P15) ?v_137)) (or (or ?v_22 ?v_27) ?v_59)) (or (or ?v_44 ?v_72) ?v_110)) (or (or ?v_43 P27) P1)) (or (or ?v_89 P3) ?v_85)) (or (or ?v_121 P2) P21)) (or (or ?v_59 ?v_148) ?v_141)) (or (or ?v_68 ?v_152) ?v_139)) (or (or P18 ?v_132) ?v_40)) (or (or ?v_114 ?v_31) ?v_18)) (or (or ?v_102 ?v_123) ?v_141)) (or (or ?v_117 P2) P16)) (or (or ?v_100 P29) P15)) (or (or P1 ?v_109) ?v_50)) (or (or P4 ?v_42) ?v_43)) (or (or ?v_97 ?v_111) ?v_136)) (or (or P28 P12) ?v_143)) (or (or ?v_83 ?v_49) ?v_38)) (or (or ?v_117 ?v_112) P14)) (or (or ?v_103 ?v_8) ?v_87)) (or (or ?v_93 ?v_86) ?v_89)) (or (or ?v_137 ?v_34) P26)) (or (or ?v_12 ?v_3) P2)) (or (or ?v_42 P29) ?v_99)) (or (or ?v_133 ?v_142) ?v_153)) (or (or ?v_142 P1) ?v_14)) (or (or ?v_139 ?v_92) P29)) (or (or ?v_148 ?v_97) ?v_127)) (or (or ?v_149 P13) ?v_43)) (or (or ?v_3 ?v_107) P0)) (or (or ?v_34 ?v_95) P9)) (or (or ?v_47 P7) ?v_142)) (or (or ?v_20 ?v_36) ?v_50)) (or (or ?v_146 ?v_31) ?v_110)) (or (or ?v_50 P7) P26)) (or (or ?v_85 ?v_77) P26)) (or (or ?v_133 ?v_101) ?v_148)) (or (or ?v_143 ?v_28) ?v_54)) (or (or P26 ?v_76) ?v_72)) (or (or P23 P13) ?v_144)) (or (or ?v_11 ?v_94) ?v_140)) (or (or ?v_149 ?v_135) ?v_100)) (or (or ?v_39 ?v_55) ?v_17)) (or (or ?v_119 ?v_98) ?v_3)) (or (or ?v_37 ?v_138) P1)) (or (or ?v_61 ?v_101) ?v_66)) (or (or P27 ?v_113) ?v_40)) (or (or ?v_68 P22) ?v_115)) (or (or ?v_125 P17) ?v_143)) (or (or ?v_125 ?v_33) ?v_63)) (or (or P28 ?v_65) ?v_109)) (or (or ?v_84 ?v_138) ?v_136)) (or (or P26 ?v_87) ?v_143)) (or (or ?v_147 P16) ?v_121)) (or (or ?v_70 ?v_79) ?v_22)) (or (or ?v_95 ?v_78) ?v_46)) (or (or ?v_28 ?v_115) ?v_148)) (or (or P19 ?v_74) ?v_99)) (or (or ?v_100 ?v_54) ?v_27)) (or (or ?v_38 P5) P10)) (or (or ?v_94 ?v_93) ?v_157)) (or (or ?v_154 ?v_51) ?v_144)) (or ?v_155 P26)) (or (or ?v_141 ?v_133) ?v_14)) (or (or ?v_135 ?v_67) ?v_108)) (or (or P8 ?v_129) ?v_153)) (or (or ?v_11 ?v_47) ?v_80)) (or (or ?v_74 ?v_5) ?v_154)) (or (or ?v_149 ?v_102) ?v_146)) (or (or ?v_61 ?v_153) ?v_49)) (or (or ?v_147 ?v_8) ?v_137)) (or (or ?v_18 ?v_143) ?v_57)) (or (or ?v_7 ?v_47) ?v_78)) (or (or ?v_18 P2) ?v_121)) (or (or ?v_100 P6) ?v_10)) (or (or ?v_125 ?v_31) ?v_87)) (or (or ?v_94 ?v_29) ?v_0)) (or (or ?v_79 ?v_102) P4)) (or (or ?v_0 ?v_61) ?v_153)) (or (or ?v_114 ?v_132) ?v_98)) (or (or P6 ?v_74) ?v_147)) (or (or ?v_69 ?v_152) ?v_89)) (or (or P4 ?v_139) ?v_133)) (or (or (not P8) ?v_110) ?v_133)) (or (or P4 ?v_68) P2)) (or (or ?v_128 ?v_80) ?v_103)) (or (or ?v_104 ?v_104) P25)) (or (or ?v_150 P4) P7)) (or (or ?v_0 ?v_33) ?v_38)) (or (or P7 P27) ?v_0)) (or (or ?v_60 ?v_111) ?v_68)) (or (or ?v_139 ?v_133) P26)) (or (or ?v_81 ?v_46) ?v_35)) (or (or ?v_147 ?v_5) ?v_43)) (or (or P20 ?v_47) ?v_34)) (or (or ?v_152 P9) ?v_149)) (or (or ?v_54 ?v_47) ?v_108)) (or (or ?v_135 ?v_60) P28)) (or (or P7 ?v_56) ?v_20)) (or (or ?v_63 ?v_61) ?v_38)) (or (or ?v_156 ?v_98) P2)) (or (or ?v_93 ?v_157) ?v_114)) (or (or ?v_45 P7) ?v_91)))))))))))))))))))))))))))))
(check-sat)
(exit)
